n_res = 4;
rc = [ 10, 13, 15, 11 ];
n_tasks = 30;
d = [ 7, 10, 7, 1, 6, 8, 7, 10, 8, 1, 4, 3, 4, 6, 4, 9, 6, 8, 6, 3, 1, 1, 7, 4, 6, 8, 7, 4, 2, 6 ];
rr = [| 0, 0, 0, 0, 0, 0, 0, 0, 0, 0, 5, 0, 0, 0, 1, 1, 0, 0, 0, 0, 5, 9, 0, 0, 0, 1, 5, 0, 0, 4
      | 0, 0, 3, 0, 0, 6, 0, 0, 0, 2, 0, 0, 0, 8, 0, 0, 0, 0, 2, 5, 0, 0, 0, 1, 4, 0, 0, 0, 10, 0
      | 4, 5, 0, 5, 9, 0, 5, 2, 0, 0, 0, 0, 7, 0, 0, 0, 4, 0, 0, 0, 0, 0, 1, 0, 0, 0, 0, 0, 0, 0
      | 0, 0, 0, 0, 0, 0, 0, 0, 6, 0, 0, 7, 0, 0, 0, 0, 0, 9, 0, 0, 0, 0, 0, 0, 0, 0, 0, 9, 0, 0 |];
suc = [ { 2 }, 
        { 3 }, 
        { 4 }, 
        { 5 }, 
        { 6 }, 
        { 7 }, 
        { 8 }, 
        { 9 }, 
        { 10 }, 
        { 11 }, 
        { 12 }, 
        { 13 }, 
        { 14 }, 
        { 15 }, 
        { 16 }, 
        { 17 }, 
        { 18 }, 
        { 19 }, 
        { 20 }, 
        { 21 }, 
        { 22 }, 
        { 23 }, 
        { 24 }, 
        { 25 }, 
        { 26 }, 
        { 27 }, 
        { 28 }, 
        { 29 }, 
        { 30 }, 
        {  }]; 
